100
128
16
7
3
14
58
12
18
1
1
4
20
4
19
18
20
12
13
18
5
13
3
14
23
3
36
6
7
5
25
35
11
22
7
17
12
12
41
2
10
26
19
10
2
11
9
2
30
26
7
6
25
10
6
1
15
4
22
8
3
30
2
16
2
1
16
15
50
38
5
46
55
60
52
52
64
52
62
12
63
42
56
56
16
64
14
45
16
19
40
27
51
51
34
46
26
64
24
23
24
64